benchmarks/bfuzz0/2548924766458216884322018665178223382.smt2
(set-logic QF_FP)
(declare-const x0 (_ FloatingPoint 11 53))
(declare-const x1 (_ FloatingPoint 11 53))
(declare-const x2 (_ FloatingPoint 11 53))
(declare-const x3 (_ FloatingPoint 11 53))
(declare-const x4 (_ FloatingPoint 11 53))
(declare-const x5 (_ FloatingPoint 11 53))
(declare-const x6 (_ FloatingPoint 11 53))
(declare-const x7 (_ FloatingPoint 11 53))
(declare-const x8 (_ FloatingPoint 11 53))
(declare-const x9 (_ FloatingPoint 11 53))
(declare-const x10 (_ FloatingPoint 11 53))
(declare-const x11 (_ FloatingPoint 11 53))
(declare-const x12 (_ FloatingPoint 11 53))
(declare-const x13 (_ FloatingPoint 11 53))
(declare-const x14 (_ FloatingPoint 11 53))
(assert (fp.leq (fp.mul RNE (fp.div RNE x1 x3) (fp.div RNE x14 x9)) (fp.mul RNE (fp.mul RNE x11 x12) (fp.mul RNE x0 x9))))
(assert (fp.eq (fp.neg (fp.add RNE x12 x14)) (fp.sub RNE (fp.sub RNE x2 x8) (fp.neg x4))))
(assert (fp.lt (fp.neg (fp.add RNE x12 x5)) (fp.neg (fp.mul RNE x1 x8))))
(check-sat)
