db/data/2548924766458216884322018665178223382.z3.out
-------------------
2500.144197985
